
Gurobi 8.1.0 (win64, Python) logging started 02/01/19 11:33:38

Academic license - for non-commercial use only

Gurobi 8.1.0 (win64, Python) logging started 02/01/19 11:41:05

Academic license - for non-commercial use only

Gurobi 8.1.0 (win64, Python) logging started 02/01/19 14:44:10

Academic license - for non-commercial use only

Gurobi 8.1.0 (win64, Python) logging started 02/01/19 14:45:35

Academic license - for non-commercial use only

Gurobi 8.1.0 (win64, Python) logging started 02/01/19 14:51:59

Academic license - for non-commercial use only

Gurobi 8.1.0 (win64, Python) logging started 02/01/19 14:59:35

Academic license - for non-commercial use only

Gurobi 8.1.0 (win64, Python) logging started 02/02/19 17:20:35

Academic license - for non-commercial use only

Gurobi 8.1.0 (win64, Python) logging started 02/04/19 09:40:27

Academic license - for non-commercial use only

Gurobi 8.1.0 (win64, Python) logging started 02/04/19 10:52:20

Academic license - for non-commercial use only

Gurobi 8.1.0 (win64, Python) logging started 02/04/19 11:00:41

Academic license - for non-commercial use only

Gurobi 8.1.0 (win64, Python) logging started 02/06/19 21:27:21

Academic license - for non-commercial use only

Gurobi 8.1.0 (win64, Python) logging started 02/06/19 21:28:41

Academic license - for non-commercial use only

Gurobi 8.1.0 (win64, Python) logging started 05/31/19 23:00:04

Academic license - for non-commercial use only
